db/data/2611120431126043021325079208082124214248.z3.out
-------------------
2500.084789058
